\* Problem: Unknown *\

Maximize
 obj: + 10 j55_d30 + 990 r24_z1_d31 + 990 r24_z1_d32 + 990 r24_z1_d33
 + 990 j10_d34 + 990 j12_d35 + 990 j12_d36 + 990 r37_z1_d38
 + 990 j13_d40 + 990 j13_d41 + 990 j14_d42 + 990 j14_d43 + 990 j15_d44
 + 10 j39_d53 + 20 r1_z1_d54 + 100 r1_volGoal + 10 r19_volGoal
 + 10 r20_volGoal + 10 r22_volGoal + 10 r24_volGoal + 10 r25_volGoal
 + 10 r37_volGoal + 10 r26_volGoal - 10000000 r25_s - 10000000 r37_s
 + 990 totalLossValue

Subject To
 r_0: + r1_volGoal + r1_z1_d54 + r1_z1_j5 <= 1364.95942531493
 r_1: + r19_volGoal + r19_z1_r20 - 0.95 j17_r19 <= 1.19772418694216
 r_2: + r20_volGoal + r20_z1_j23 - 0.95 r19_z1_r20 <= 6.5773080091334
 r_3: + r22_volGoal + r22_z1_j23 <= 2.13233999878405
 r_4: + r24_volGoal + r24_z1_r26 + r24_z1_d33 + r24_z1_d32 + r24_z1_d31
 - 0.95 j23_r24 <= 4.76052077923663
 r_5: + r25_s <= 0.146660998328162
 r_6: - r25_s + r25_volGoal + r25_z1_j23 <= -0.146660998328162
 r_7: + r37_s <= 2.74773162391977
 r_8: - r37_s + r37_volGoal + r37_z1_j39 + r37_z1_d38 - 0.95 j12_r37
 <= -2.74773162391977
 r_9: + r26_volGoal + r26_z1_j55 - 0.95 r24_z1_r26 <= 6.14215219248563
 r_10: + r24_z1_d31 <= 0.40176
 r_11: + r24_z1_d32 <= 3.026592
 r_12: + r24_z1_d33 <= 5.276448
 r_13: + j10_d34 <= 0.723168
 r_14: + j12_d35 <= 0.214272
 r_15: + j12_d36 <= 0.883872
 r_16: + r37_z1_d38 <= 0.294624
 r_17: + j13_d40 <= 0.214272
 r_18: + j13_d41 <= 1.20528
 r_19: + j14_d42 <= 0.642816
 r_20: + j14_d43 <= 0.696384
 r_21: + j15_d44 <= 0.160704
 r_22: + r1_z1_d54 <= 267837.3216
 r_23: + 0.95 j55_d30 <= 267837.3216
 r_24: + j39_d53 <= 267837.3216
 r_25: - 0.99 r1_z1_j5 + j5_j6 = 0
 r_26: - 0.99 j5_j6 + j6_j7 = 0
 r_27: - 0.99 j6_j7 + j7_j8 = 0
 r_28: - 0.99 j7_j8 + j8_j9 = 0
 r_29: - 0.99 j8_j9 + j9_j10 = 0
 r_30: - 0.99 j9_j10 + j10_d34 + j10_j11 = 0
 r_31: - 0.99 j10_j11 + j11_j12 = 0
 r_32: - 0.99 j11_j12 + j12_r37 + j12_d36 + j12_d35 + j12_j13 = 0
 r_33: - 0.99 j12_j13 + j13_d41 + j13_d40 + j13_j14 = 0
 r_34: - 0.99 j13_j14 + j14_d43 + j14_d42 + j14_j15 = 0
 r_35: - 0.99 j14_j15 + j15_d44 + j15_j16 = 0
 r_36: - 0.99 j15_j16 + j16_j17 = 0
 r_37: - 0.99 j16_j17 + j17_r19 = 0
 r_38: - 0.95 r25_z1_j23 - 0.95 r22_z1_j23 - 0.95 r20_z1_j23 + j23_r24
 = 0
 r_39: - 0.95 r37_z1_j39 + j39_d53 = 0
 r_40: - 0.95 r26_z1_j55 + j55_d30 = 0
 r_41: + r1_z1_j5 <= 2282
 r_42: + r24_z1_d33 + r24_z1_d32 + r24_z1_d31 <= 377.5
 r_43: + r37_z1_d38 <= 428.4
 r_44: + r1_volGoal <= 2282
 r_45: + r19_volGoal <= 29.28
 r_46: + r20_volGoal <= 46.28
 r_47: + r22_volGoal <= 44.67
 r_48: + r24_volGoal <= 377.5
 r_49: + r25_volGoal <= 68.44
 r_50: + r37_volGoal <= 428.4
 r_51: + r26_volGoal <= 250.97
 r_52: + totalLossValue - 0.05 j12_r37 - 0.05 r26_z1_j55
 - 0.05 r24_z1_r26 - 0.05 r20_z1_j23 - 0.05 r19_z1_r20 - 0.05 j17_r19
 - 0.05 r37_z1_j39 - 0.05 j23_r24 - 0.05 r25_z1_j23 - 0.05 r22_z1_j23
 - 0.01 j16_j17 - 0.01 j15_j16 - 0.01 j14_j15 - 0.01 j13_j14
 - 0.01 j12_j13 - 0.01 j11_j12 - 0.01 j10_j11 - 0.01 j9_j10 - 0.01 j8_j9
 - 0.01 j7_j8 - 0.01 j6_j7 - 0.01 j5_j6 - 0.01 r1_z1_j5 = 0

Bounds

 3000 <= i1 <= 3000
 0 <= i19 <= 0
 0 <= i20 <= 0
 0 <= i22 <= 0
 0 <= i24 <= 0
 0 <= i25 <= 0
 0 <= i26 <= 0
 0 <= i37 <= 0

 0 <= sp1 <= 1000000
 0 <= sp19 <= 1000000
 0 <= sp20 <= 1000000
 0 <= sp22 <= 1000000
 0 <= sp24 <= 1000000
 0 <= sp26 <= 1000000 
 0 <= sp37 <= 1000000 

 0 <= j55_d30 <= 2678.4
 0 <= r24_z1_d31 <= 2678.4
 0 <= r24_z1_d32 <= 2678.4
 0 <= r24_z1_d33 <= 2678.4
 0 <= j10_d34 <= 2678.4
 0 <= j12_d35 <= 2678.4
 0 <= j12_d36 <= 2678.4
 0 <= r37_z1_d38 <= 2678.4
 0 <= j13_d40 <= 2678.4
 0 <= j13_d41 <= 2678.4
 0 <= j14_d42 <= 2678.4
 0 <= j14_d43 <= 2678.4
 0 <= j15_d44 <= 2678.4
 0 <= j39_d53 <= 2678.4
 0 <= j17_r19 <= 2678.4
 0 <= r19_z1_r20 <= 2678.4
 0 <= r20_z1_j23 <= 2678.4
 0 <= r22_z1_j23 <= 2678.4
 0 <= j23_r24 <= 2678.4
 0 <= r24_z1_r26 <= 2678.4
 0 <= r25_z1_j23 <= 2678.4
 0 <= j12_r37 <= 2678.4
 0 <= r37_z1_j39 <= 2678.4
 0 <= r26_z1_j55 <= 2678.4
 0 <= j6_j7 <= 2678.4
 0 <= j11_j12 <= 2678.4
 0 <= j12_j13 <= 2678.4
 0 <= j15_j16 <= 2678.4
 0 <= j16_j17 <= 2678.4

End